certificates/rado_a5_c299_N59.cnf
c Rad2 upper bound instance: x1 + 5*x2 - x3 = 299, interval [1,59]
p cnf 59 660
1 5 59 0
-1 -5 -59 0
2 6 59 0
-2 -6 -59 0
3 7 59 0
-3 -7 -59 0
4 8 59 0
-4 -8 -59 0
5 9 59 0
-5 -9 -59 0
1 10 58 0
-1 -10 -58 0
6 10 59 0
-6 -10 -59 0
2 11 58 0
-2 -11 -58 0
7 11 59 0
-7 -11 -59 0
3 12 58 0
-3 -12 -58 0
8 12 59 0
-8 -12 -59 0
4 13 58 0
-4 -13 -58 0
9 13 59 0
-9 -13 -59 0
5 14 58 0
-5 -14 -58 0
10 14 59 0
-10 -14 -59 0
1 15 57 0
-1 -15 -57 0
6 15 58 0
-6 -15 -58 0
11 15 59 0
-11 -15 -59 0
2 16 57 0
-2 -16 -57 0
7 16 58 0
-7 -16 -58 0
12 16 59 0
-12 -16 -59 0
3 17 57 0
-3 -17 -57 0
8 17 58 0
-8 -17 -58 0
13 17 59 0
-13 -17 -59 0
4 18 57 0
-4 -18 -57 0
9 18 58 0
-9 -18 -58 0
14 18 59 0
-14 -18 -59 0
5 19 57 0
-5 -19 -57 0
10 19 58 0
-10 -19 -58 0
15 19 59 0
-15 -19 -59 0
1 20 56 0
-1 -20 -56 0
6 20 57 0
-6 -20 -57 0
11 20 58 0
-11 -20 -58 0
16 20 59 0
-16 -20 -59 0
2 21 56 0
-2 -21 -56 0
7 21 57 0
-7 -21 -57 0
12 21 58 0
-12 -21 -58 0
17 21 59 0
-17 -21 -59 0
3 22 56 0
-3 -22 -56 0
8 22 57 0
-8 -22 -57 0
13 22 58 0
-13 -22 -58 0
18 22 59 0
-18 -22 -59 0
4 23 56 0
-4 -23 -56 0
9 23 57 0
-9 -23 -57 0
14 23 58 0
-14 -23 -58 0
19 23 59 0
-19 -23 -59 0
5 24 56 0
-5 -24 -56 0
10 24 57 0
-10 -24 -57 0
15 24 58 0
-15 -24 -58 0
20 24 59 0
-20 -24 -59 0
1 25 55 0
-1 -25 -55 0
6 25 56 0
-6 -25 -56 0
11 25 57 0
-11 -25 -57 0
16 25 58 0
-16 -25 -58 0
21 25 59 0
-21 -25 -59 0
2 26 55 0
-2 -26 -55 0
7 26 56 0
-7 -26 -56 0
12 26 57 0
-12 -26 -57 0
17 26 58 0
-17 -26 -58 0
22 26 59 0
-22 -26 -59 0
3 27 55 0
-3 -27 -55 0
8 27 56 0
-8 -27 -56 0
13 27 57 0
-13 -27 -57 0
18 27 58 0
-18 -27 -58 0
23 27 59 0
-23 -27 -59 0
4 28 55 0
-4 -28 -55 0
9 28 56 0
-9 -28 -56 0
14 28 57 0
-14 -28 -57 0
19 28 58 0
-19 -28 -58 0
24 28 59 0
-24 -28 -59 0
5 29 55 0
-5 -29 -55 0
10 29 56 0
-10 -29 -56 0
15 29 57 0
-15 -29 -57 0
20 29 58 0
-20 -29 -58 0
25 29 59 0
-25 -29 -59 0
1 30 54 0
-1 -30 -54 0
6 30 55 0
-6 -30 -55 0
11 30 56 0
-11 -30 -56 0
16 30 57 0
-16 -30 -57 0
21 30 58 0
-21 -30 -58 0
26 30 59 0
-26 -30 -59 0
2 31 54 0
-2 -31 -54 0
7 31 55 0
-7 -31 -55 0
12 31 56 0
-12 -31 -56 0
17 31 57 0
-17 -31 -57 0
22 31 58 0
-22 -31 -58 0
27 31 59 0
-27 -31 -59 0
3 32 54 0
-3 -32 -54 0
8 32 55 0
-8 -32 -55 0
13 32 56 0
-13 -32 -56 0
18 32 57 0
-18 -32 -57 0
23 32 58 0
-23 -32 -58 0
28 32 59 0
-28 -32 -59 0
4 33 54 0
-4 -33 -54 0
9 33 55 0
-9 -33 -55 0
14 33 56 0
-14 -33 -56 0
19 33 57 0
-19 -33 -57 0
24 33 58 0
-24 -33 -58 0
29 33 59 0
-29 -33 -59 0
5 34 54 0
-5 -34 -54 0
10 34 55 0
-10 -34 -55 0
15 34 56 0
-15 -34 -56 0
20 34 57 0
-20 -34 -57 0
25 34 58 0
-25 -34 -58 0
30 34 59 0
-30 -34 -59 0
1 35 53 0
-1 -35 -53 0
6 35 54 0
-6 -35 -54 0
11 35 55 0
-11 -35 -55 0
16 35 56 0
-16 -35 -56 0
21 35 57 0
-21 -35 -57 0
26 35 58 0
-26 -35 -58 0
31 35 59 0
-31 -35 -59 0
2 36 53 0
-2 -36 -53 0
7 36 54 0
-7 -36 -54 0
12 36 55 0
-12 -36 -55 0
17 36 56 0
-17 -36 -56 0
22 36 57 0
-22 -36 -57 0
27 36 58 0
-27 -36 -58 0
32 36 59 0
-32 -36 -59 0
3 37 53 0
-3 -37 -53 0
8 37 54 0
-8 -37 -54 0
13 37 55 0
-13 -37 -55 0
18 37 56 0
-18 -37 -56 0
23 37 57 0
-23 -37 -57 0
28 37 58 0
-28 -37 -58 0
33 37 59 0
-33 -37 -59 0
4 38 53 0
-4 -38 -53 0
9 38 54 0
-9 -38 -54 0
14 38 55 0
-14 -38 -55 0
19 38 56 0
-19 -38 -56 0
24 38 57 0
-24 -38 -57 0
29 38 58 0
-29 -38 -58 0
34 38 59 0
-34 -38 -59 0
5 39 53 0
-5 -39 -53 0
10 39 54 0
-10 -39 -54 0
15 39 55 0
-15 -39 -55 0
20 39 56 0
-20 -39 -56 0
25 39 57 0
-25 -39 -57 0
30 39 58 0
-30 -39 -58 0
35 39 59 0
-35 -39 -59 0
1 40 52 0
-1 -40 -52 0
6 40 53 0
-6 -40 -53 0
11 40 54 0
-11 -40 -54 0
16 40 55 0
-16 -40 -55 0
21 40 56 0
-21 -40 -56 0
26 40 57 0
-26 -40 -57 0
31 40 58 0
-31 -40 -58 0
36 40 59 0
-36 -40 -59 0
2 41 52 0
-2 -41 -52 0
7 41 53 0
-7 -41 -53 0
12 41 54 0
-12 -41 -54 0
17 41 55 0
-17 -41 -55 0
22 41 56 0
-22 -41 -56 0
27 41 57 0
-27 -41 -57 0
32 41 58 0
-32 -41 -58 0
37 41 59 0
-37 -41 -59 0
3 42 52 0
-3 -42 -52 0
8 42 53 0
-8 -42 -53 0
13 42 54 0
-13 -42 -54 0
18 42 55 0
-18 -42 -55 0
23 42 56 0
-23 -42 -56 0
28 42 57 0
-28 -42 -57 0
33 42 58 0
-33 -42 -58 0
38 42 59 0
-38 -42 -59 0
4 43 52 0
-4 -43 -52 0
9 43 53 0
-9 -43 -53 0
14 43 54 0
-14 -43 -54 0
19 43 55 0
-19 -43 -55 0
24 43 56 0
-24 -43 -56 0
29 43 57 0
-29 -43 -57 0
34 43 58 0
-34 -43 -58 0
39 43 59 0
-39 -43 -59 0
5 44 52 0
-5 -44 -52 0
10 44 53 0
-10 -44 -53 0
15 44 54 0
-15 -44 -54 0
20 44 55 0
-20 -44 -55 0
25 44 56 0
-25 -44 -56 0
30 44 57 0
-30 -44 -57 0
35 44 58 0
-35 -44 -58 0
40 44 59 0
-40 -44 -59 0
1 45 51 0
-1 -45 -51 0
6 45 52 0
-6 -45 -52 0
11 45 53 0
-11 -45 -53 0
16 45 54 0
-16 -45 -54 0
21 45 55 0
-21 -45 -55 0
26 45 56 0
-26 -45 -56 0
31 45 57 0
-31 -45 -57 0
36 45 58 0
-36 -45 -58 0
41 45 59 0
-41 -45 -59 0
2 46 51 0
-2 -46 -51 0
7 46 52 0
-7 -46 -52 0
12 46 53 0
-12 -46 -53 0
17 46 54 0
-17 -46 -54 0
22 46 55 0
-22 -46 -55 0
27 46 56 0
-27 -46 -56 0
32 46 57 0
-32 -46 -57 0
37 46 58 0
-37 -46 -58 0
42 46 59 0
-42 -46 -59 0
3 47 51 0
-3 -47 -51 0
8 47 52 0
-8 -47 -52 0
13 47 53 0
-13 -47 -53 0
18 47 54 0
-18 -47 -54 0
23 47 55 0
-23 -47 -55 0
28 47 56 0
-28 -47 -56 0
33 47 57 0
-33 -47 -57 0
38 47 58 0
-38 -47 -58 0
43 47 59 0
-43 -47 -59 0
4 48 51 0
-4 -48 -51 0
9 48 52 0
-9 -48 -52 0
14 48 53 0
-14 -48 -53 0
19 48 54 0
-19 -48 -54 0
24 48 55 0
-24 -48 -55 0
29 48 56 0
-29 -48 -56 0
34 48 57 0
-34 -48 -57 0
39 48 58 0
-39 -48 -58 0
44 48 59 0
-44 -48 -59 0
5 49 51 0
-5 -49 -51 0
10 49 52 0
-10 -49 -52 0
15 49 53 0
-15 -49 -53 0
20 49 54 0
-20 -49 -54 0
25 49 55 0
-25 -49 -55 0
30 49 56 0
-30 -49 -56 0
35 49 57 0
-35 -49 -57 0
40 49 58 0
-40 -49 -58 0
45 49 59 0
-45 -49 -59 0
1 50 0
-1 -50 0
6 50 51 0
-6 -50 -51 0
11 50 52 0
-11 -50 -52 0
16 50 53 0
-16 -50 -53 0
21 50 54 0
-21 -50 -54 0
26 50 55 0
-26 -50 -55 0
31 50 56 0
-31 -50 -56 0
36 50 57 0
-36 -50 -57 0
41 50 58 0
-41 -50 -58 0
46 50 59 0
-46 -50 -59 0
2 50 51 0
-2 -50 -51 0
7 51 0
-7 -51 0
12 51 52 0
-12 -51 -52 0
17 51 53 0
-17 -51 -53 0
22 51 54 0
-22 -51 -54 0
27 51 55 0
-27 -51 -55 0
32 51 56 0
-32 -51 -56 0
37 51 57 0
-37 -51 -57 0
42 51 58 0
-42 -51 -58 0
47 51 59 0
-47 -51 -59 0
3 50 52 0
-3 -50 -52 0
8 51 52 0
-8 -51 -52 0
13 52 0
-13 -52 0
18 52 53 0
-18 -52 -53 0
23 52 54 0
-23 -52 -54 0
28 52 55 0
-28 -52 -55 0
33 52 56 0
-33 -52 -56 0
38 52 57 0
-38 -52 -57 0
43 52 58 0
-43 -52 -58 0
48 52 59 0
-48 -52 -59 0
4 50 53 0
-4 -50 -53 0
9 51 53 0
-9 -51 -53 0
14 52 53 0
-14 -52 -53 0
19 53 0
-19 -53 0
24 53 54 0
-24 -53 -54 0
29 53 55 0
-29 -53 -55 0
34 53 56 0
-34 -53 -56 0
39 53 57 0
-39 -53 -57 0
44 53 58 0
-44 -53 -58 0
49 53 59 0
-49 -53 -59 0
5 50 54 0
-5 -50 -54 0
10 51 54 0
-10 -51 -54 0
15 52 54 0
-15 -52 -54 0
20 53 54 0
-20 -53 -54 0
25 54 0
-25 -54 0
30 54 55 0
-30 -54 -55 0
35 54 56 0
-35 -54 -56 0
40 54 57 0
-40 -54 -57 0
45 54 58 0
-45 -54 -58 0
50 54 59 0
-50 -54 -59 0
1 49 55 0
-1 -49 -55 0
6 50 55 0
-6 -50 -55 0
11 51 55 0
-11 -51 -55 0
16 52 55 0
-16 -52 -55 0
21 53 55 0
-21 -53 -55 0
26 54 55 0
-26 -54 -55 0
31 55 0
-31 -55 0
36 55 56 0
-36 -55 -56 0
41 55 57 0
-41 -55 -57 0
46 55 58 0
-46 -55 -58 0
51 55 59 0
-51 -55 -59 0
2 49 56 0
-2 -49 -56 0
7 50 56 0
-7 -50 -56 0
12 51 56 0
-12 -51 -56 0
17 52 56 0
-17 -52 -56 0
22 53 56 0
-22 -53 -56 0
27 54 56 0
-27 -54 -56 0
32 55 56 0
-32 -55 -56 0
37 56 0
-37 -56 0
42 56 57 0
-42 -56 -57 0
47 56 58 0
-47 -56 -58 0
52 56 59 0
-52 -56 -59 0
3 49 57 0
-3 -49 -57 0
8 50 57 0
-8 -50 -57 0
13 51 57 0
-13 -51 -57 0
18 52 57 0
-18 -52 -57 0
23 53 57 0
-23 -53 -57 0
28 54 57 0
-28 -54 -57 0
33 55 57 0
-33 -55 -57 0
38 56 57 0
-38 -56 -57 0
43 57 0
-43 -57 0
48 57 58 0
-48 -57 -58 0
53 57 59 0
-53 -57 -59 0
4 49 58 0
-4 -49 -58 0
9 50 58 0
-9 -50 -58 0
14 51 58 0
-14 -51 -58 0
19 52 58 0
-19 -52 -58 0
24 53 58 0
-24 -53 -58 0
29 54 58 0
-29 -54 -58 0
34 55 58 0
-34 -55 -58 0
39 56 58 0
-39 -56 -58 0
44 57 58 0
-44 -57 -58 0
49 58 0
-49 -58 0
54 58 59 0
-54 -58 -59 0
5 49 59 0
-5 -49 -59 0
10 50 59 0
-10 -50 -59 0
15 51 59 0
-15 -51 -59 0
20 52 59 0
-20 -52 -59 0
25 53 59 0
-25 -53 -59 0
30 54 59 0
-30 -54 -59 0
35 55 59 0
-35 -55 -59 0
40 56 59 0
-40 -56 -59 0
45 57 59 0
-45 -57 -59 0
50 58 59 0
-50 -58 -59 0
55 59 0
-55 -59 0
