certificates/rado_a5_c299_N59.drat
-59 0
55 0
-31 0
27 0
35 0
-3 0
-51 0
-11 0
7 0
47 0
15 0
-23 0
-39 0
19 0
43 0
0
